50
15859

243 230
902 481
119 833
447 936
152 482
825 230
561 883
284 588
324 683
733 873
433 664
271 177
33 902
521 957
61 494
828 618
544 318
396 783
418 970
406 24
271 802
441 231
113 470
341 892
958 597
33 303
493 611
916 613
916 686
830 988
636 33
848 744
51 564
565 256
212 498
433 790
818 737
456 632
777 261
451 393
971 609
462 465
245 771
800 745
591 3
648 39
975 868
223 153
179 636
768 464
